NAME:  test1
TYPE: AGTSP
COMMENT: gtsp tours
DIMENSION:  73
GTSP_SETS: 13
EDGE_WEIGHT_TYPE: EXPLICIT
EDGE_WEIGHT_FORMAT: FULL_MATRIX 
EDGE_WEIGHT_SECTION
999999	0	999999	999999	999999	999999	25598	25598	25598	25590	999999	999999	25584	25584	25576	999999	999999	999999	25618	25618	25618	25618	25618	25610	25619	25619	25619	25619	25619	25611	25588	25588	25580	999999	999999	999999	25598	25598
999999	999999	0	999999	999999	999999	25598	25598	25598	25598	25590	999999	25584	25584	25584	25576	999999	999999	25618	25618	25618	999999	999999	999999	25619	25619	25619	999999	999999	999999	25588	25588	25588	25580	999999	999999	25598	25598
999999	999999	999999	0	999999	999999	25598	25598	25598	25598	25598	25590	25584	25584	25584	25584	25576	999999	25618	25618	25618	25618	999999	999999	25619	25619	25619	25619	999999	999999	25588	25588	25588	25588	25580	999999	25598	25598
999999	999999	999999	999999	0	999999	25598	25598	25598	25598	25598	999999	25584	25584	25584	25584	25584	25576	25618	25618	25618	25618	25618	999999	25619	25619	25619	25619	25619	999999	25588	25588	25588	25588	25588	25580	25598	25598
999999	999999	999999	999999	999999	0	25598	25598	25598	25598	25598	25598	25584	25584	25584	25584	25584	25584	25618	25618	25618	25618	25618	25618	25619	25619	25619	25619	25619	25619	25588	25588	25588	25588	25588	25588	25598	25598
0	999999	999999	999999	999999	999999	25598	25598	25590	999999	999999	999999	25584	25576	999999	999999	999999	999999	25618	25618	25618	25618	25610	999999	25619	25619	25619	25619	25611	999999	25588	25580	999999	999999	999999	999999	25598	25598
25598	25598	25598	25590	999999	999999	999999	0	999999	999999	999999	999999	25607	25607	25607	25607	25599	999999	25611	25611	25611	25611	25603	999999	25631	25631	999999	999999	999999	999999	25611	25611	25611	25611	25603	999999	25619	25619
25598	25598	25598	25598	25590	999999	999999	999999	0	999999	999999	999999	25607	25607	25607	25607	25607	25599	25611	25611	25611	25611	25611	25603	25631	25631	25631	999999	999999	999999	25611	25611	25611	25611	25611	25603	25619	25619
25598	25598	25598	25598	25598	25590	999999	999999	999999	0	999999	999999	25607	25607	25607	25607	999999	999999	25611	25611	25611	25611	999999	999999	25631	25631	25631	25631	999999	999999	25611	25611	25611	25611	999999	999999	25619	25619
25598	25598	25598	25598	25598	999999	999999	999999	999999	999999	0	999999	25607	25607	25607	25607	25607	999999	25611	25611	25611	25611	25611	999999	25631	25631	25631	25631	25631	999999	25611	25611	25611	25611	25611	999999	25619	25619
25598	25598	25598	25598	25598	25598	999999	999999	999999	999999	999999	0	25607	25607	25607	25607	25607	25607	25611	25611	25611	25611	25611	25611	25631	25631	25631	25631	25631	25631	25611	25611	25611	25611	25611	25611	25619	25619
25598	25598	25590	999999	999999	999999	0	999999	999999	999999	999999	999999	25607	25607	25607	25599	999999	999999	25611	25611	25611	25603	999999	999999	25631	25631	25631	25631	25631	25623	25611	25611	25611	25603	999999	999999	25619	25619
25584	25584	25576	999999	999999	999999	25607	25607	25607	25607	25599	999999	999999	0	999999	999999	999999	999999	25626	25626	25626	25626	25626	25618	25622	25622	25622	25622	25622	25614	25579	25579	25571	999999	999999	999999	25597	25597
25584	25584	25584	25576	999999	999999	25607	25607	25607	25607	25607	25599	999999	999999	0	999999	999999	999999	25626	25626	25626	999999	999999	999999	25622	25622	25622	999999	999999	999999	25579	25579	25579	25571	999999	999999	25597	25597
25584	25584	25584	25584	25576	999999	25607	25607	25607	25607	999999	999999	999999	999999	999999	0	999999	999999	25626	25626	25626	25626	999999	999999	25622	25622	25622	25622	999999	999999	25579	25579	25579	25579	25571	999999	25597	25597
25584	25584	25584	25584	25584	25576	25607	25607	25607	25607	25607	999999	999999	999999	999999	999999	0	999999	25626	25626	25626	25626	25626	999999	25622	25622	25622	25622	25622	999999	25579	25579	25579	25579	25579	25571	25597	25597
25584	25584	25584	25584	25584	25584	25607	25607	25607	25607	25607	25607	999999	999999	999999	999999	999999	0	25626	25626	25626	25626	25626	25626	25622	25622	25622	25622	25622	25622	25579	25579	25579	25579	25579	25579	25597	25597
25584	25576	999999	999999	999999	999999	25607	25607	25607	25599	999999	999999	0	999999	999999	999999	999999	999999	25626	25626	25626	25626	25618	999999	25622	25622	25622	25622	25614	999999	25579	25571	999999	999999	999999	999999	25597	25597
25618	25618	25618	25618	25618	25610	25611	25611	25611	25611	25603	999999	25626	25626	25626	25626	25626	25618	999999	0	999999	999999	999999	999999	25611	25611	25611	25611	25603	999999	25630	25630	25630	25630	25630	25622	25620	25620
25618	25618	25618	999999	999999	999999	25611	25611	25611	25611	25611	25603	25626	25626	25626	999999	999999	999999	999999	999999	0	999999	999999	999999	25611	25611	25611	25611	25611	25603	25630	25630	25630	999999	999999	999999	25620	25620
25618	25618	25618	25618	999999	999999	25611	25611	25611	25611	999999	999999	25626	25626	25626	25626	999999	999999	999999	999999	999999	0	999999	999999	25611	25611	25611	25611	999999	999999	25630	25630	25630	25630	999999	999999	25620	25620
25618	25618	25618	25618	25618	999999	25611	25611	25611	25611	25611	999999	25626	25626	25626	25626	25626	999999	999999	999999	999999	999999	0	999999	25611	25611	25611	25611	25611	999999	25630	25630	25630	25630	25630	999999	25620	25620
25618	25618	25618	25618	25618	25618	25611	25611	25611	25611	25611	25611	25626	25626	25626	25626	25626	25626	999999	999999	999999	999999	999999	0	25611	25611	25611	25611	25611	25611	25630	25630	25630	25630	25630	25630	25620	25620
25618	25618	25618	25618	25610	999999	25611	25611	25611	25603	999999	999999	25626	25626	25626	25626	25618	999999	0	999999	999999	999999	999999	999999	25611	25611	25611	25603	999999	999999	25630	25630	25630	25630	25622	999999	25620	25620
25619	25619	25619	25619	25619	25611	25631	25631	999999	999999	999999	999999	25622	25622	25622	25622	25622	25614	25611	25611	25611	25611	25603	999999	999999	0	999999	999999	999999	999999	25623	25623	25623	25623	25623	25615	25602	25602
25619	25619	25619	999999	999999	999999	25631	25631	25631	999999	999999	999999	25622	25622	25622	999999	999999	999999	25611	25611	25611	25611	25611	25603	999999	999999	0	999999	999999	999999	25623	25623	25623	999999	999999	999999	25602	25602
25619	25619	25619	25619	999999	999999	25631	25631	25631	25631	999999	999999	25622	25622	25622	25622	999999	999999	25611	25611	25611	25611	999999	999999	999999	999999	999999	0	999999	999999	25623	25623	25623	25623	999999	999999	25602	25602
25619	25619	25619	25619	25619	999999	25631	25631	25631	25631	25631	999999	25622	25622	25622	25622	25622	999999	25611	25611	25611	25611	25611	999999	999999	999999	999999	999999	0	999999	25623	25623	25623	25623	25623	999999	25602	25602
25619	25619	25619	25619	25619	25619	25631	25631	25631	25631	25631	25631	25622	25622	25622	25622	25622	25622	25611	25611	25611	25611	25611	25611	999999	999999	999999	999999	999999	0	25623	25623	25623	25623	25623	25623	25602	25602
25619	25619	25619	25619	25611	999999	25631	25631	25631	25631	25631	25623	25622	25622	25622	25622	25614	999999	25611	25611	25611	25603	999999	999999	0	999999	999999	999999	999999	999999	25623	25623	25623	25623	25615	999999	25602	25602
25588	25588	25580	999999	999999	999999	25611	25611	25611	25611	25603	999999	25579	25579	25571	999999	999999	999999	25630	25630	25630	25630	25630	25622	25623	25623	25623	25623	25623	25615	999999	0	999999	999999	999999	999999	25596	25596
25588	25588	25588	25580	999999	999999	25611	25611	25611	25611	25611	25603	25579	25579	25579	25571	999999	999999	25630	25630	25630	999999	999999	999999	25623	25623	25623	999999	999999	999999	999999	999999	0	999999	999999	999999	25596	25596
25588	25588	25588	25588	25580	999999	25611	25611	25611	25611	999999	999999	25579	25579	25579	25579	25571	999999	25630	25630	25630	25630	999999	999999	25623	25623	25623	25623	999999	999999	999999	999999	999999	0	999999	999999	25596	25596
25588	25588	25588	25588	25588	25580	25611	25611	25611	25611	25611	999999	25579	25579	25579	25579	25579	25571	25630	25630	25630	25630	25630	999999	25623	25623	25623	25623	25623	999999	999999	999999	999999	999999	0	999999	25596	25596
25588	25588	25588	25588	25588	25588	25611	25611	25611	25611	25611	25611	25579	25579	25579	25579	25579	25579	25630	25630	25630	25630	25630	25630	25623	25623	25623	25623	25623	25623	999999	999999	999999	999999	999999	0	25596	25596
25588	25580	999999	999999	999999	999999	25611	25611	25611	25603	999999	999999	25579	25571	999999	999999	999999	999999	25630	25630	25630	25630	25622	999999	25623	25623	25623	25623	25615	999999	0	999999	999999	999999	999999	999999	25596	25596
25598	25598	25598	25590	999999	999999	25619	25619	25619	25619	25619	25611	25597	25597	25597	25589	999999	999999	25620	25620	25620	25620	25620	25612	25602	25602	25602	25594	999999	999999	25596	25596	25596	25588	999999	999999	999999	0
25598	25598	25598	25598	25590	999999	25619	25619	25619	999999	999999	999999	25597	25597	25597	25597	25589	999999	25620	25620	25620	999999	999999	999999	25602	25602	25602	25602	25594	999999	25596	25596	25596	25596	25588	999999	999999	999999
GTSP_SET_SECTION:
1 1 2 3 4 5 6 -1
2 7 8 9 10 11 12 -1
3 13 14 15 16 17 18 -1
4 19 20 21 22 23 24 -1
5 25 26 27 28 29 30 -1
6 31 32 33 34 35 36 -1
7 37 38 39 40 41 42 -1
8 43 44 45 46 47 48 -1
9 49 50 51 52 53 54 -1
10 55 56 57 58 59 60 -1
11 61 62 63 64 65 66 -1
12 67 68 69 70 71 72 -1
13 73 -1
EOF